Version identifier: 22.1.0.0 | 2022-03-09 | 1a383f8ce
CPXPARAM_Read_DataCheck                          1
1 of 1 MIP starts provided solutions.
MIP start 'm1' defined initial solution with objective 24.0000.
Tried aggregator 4 times.
MIP Presolve eliminated 5824 rows and 1254 columns.
MIP Presolve modified 147 coefficients.
Aggregator did 4808 substitutions.
Reduced MIP has 1261 rows, 5026 columns, and 11305 nonzeros.
Reduced MIP has 5012 binaries, 14 generals, 0 SOSs, and 0 indicators.
Presolve time = 0.04 sec. (41.50 ticks)
Probing fixed 24 vars, tightened 0 bounds.
Probing changed sense of 3 constraints.
Probing time = 0.01 sec. (2.56 ticks)
Tried aggregator 2 times.
Detecting symmetries...
MIP Presolve eliminated 23 rows and 30 columns.
Aggregator did 11 substitutions.
Reduced MIP has 1227 rows, 4985 columns, and 11168 nonzeros.
Reduced MIP has 4971 binaries, 14 generals, 0 SOSs, and 0 indicators.
Presolve time = 0.01 sec. (11.34 ticks)
Probing fixed 3 vars, tightened 0 bounds.
Probing time = 0.01 sec. (2.33 ticks)
Clique table members: 10342.
MIP emphasis: balance optimality and feasibility.
MIP search method: dynamic search.
Parallel mode: deterministic, using up to 8 threads.
Root relaxation solution time = 0.04 sec. (32.70 ticks)

        Nodes                                         Cuts/
   Node  Left     Objective  IInf  Best Integer    Best Bound    ItCnt     Gap

*     0+    0                           24.0000        0.0000           100.00%
      0     0       14.4675   957       24.0000       14.4675     1140   39.72%
      0     0        cutoff             24.0000                   1149    0.00%
Elapsed time = 0.34 sec. (222.90 ticks, tree = 0.01 MB, solutions = 1)

Zero-half cuts applied:  38
Lift and project cuts applied:  1
Gomory fractional cuts applied:  10

Root node processing (before b&c):
  Real time             =    0.34 sec. (223.28 ticks)
Parallel b&c, 8 threads:
  Real time             =    0.00 sec. (0.00 ticks)
  Sync time (average)   =    0.00 sec.
  Wait time (average)   =    0.00 sec.
                          ------------
Total (root+branch&cut) =    0.34 sec. (223.28 ticks)
